Minimize

x_0


Subject To


z0:  - x_0 + 0 x$_0_0  + 1 x$_0_1  + 2 x$_0_2  + 3 x$_0_3  + 4 x$_0_4 = 0
z1: x$_0_0  + x$_0_1  + x$_0_2  + x$_0_3  + x$_0_4 = 1
z2:  - x_1 + 0 x$_1_0  + 1 x$_1_1  + 2 x$_1_2  + 3 x$_1_3  + 4 x$_1_4 = 0
z3: x$_1_0  + x$_1_1  + x$_1_2  + x$_1_3  + x$_1_4 = 1
z4:  - x_2 + 0 x$_2_0  + 1 x$_2_1  + 2 x$_2_2  + 3 x$_2_3  + 4 x$_2_4 = 0
z5: x$_2_0  + x$_2_1  + x$_2_2  + x$_2_3  + x$_2_4 = 1
z6:  - x_3 + 0 x$_3_0  + 1 x$_3_1  + 2 x$_3_2  + 3 x$_3_3  + 4 x$_3_4 = 0
z7: x$_3_0  + x$_3_1  + x$_3_2  + x$_3_3  + x$_3_4 = 1
z8:  - x_4 + 0 x$_4_0  + 1 x$_4_1  + 2 x$_4_2  + 3 x$_4_3  + 4 x$_4_4 = 0
z9: x$_4_0  + x$_4_1  + x$_4_2  + x$_4_3  + x$_4_4 = 1
z10: x$_0_0  + x$_1_0  + x$_2_0  + x$_3_0  + x$_4_0 = 1
z11: x$_0_1  + x$_1_1  + x$_2_1  + x$_3_1  + x$_4_1 = 1
z12: x$_0_2  + x$_1_2  + x$_2_2  + x$_3_2  + x$_4_2 = 1
z13: x$_0_3  + x$_1_3  + x$_2_3  + x$_3_3  + x$_4_3 = 1
z14: x$_0_4  + x$_1_4  + x$_2_4  + x$_3_4  + x$_4_4 = 1
z15:  - x_0 + -4 x$_5_0  + -3 x$_5_1  + -2 x$_5_2  + -1 x$_5_3  + 0 x$_5_4  + 1 x$_5_5  + 2 x$_5_6  + 3 x$_5_7  + 4 x$_5_8 = 0
z16: x$_5_0  + x$_5_1  + x$_5_2  + x$_5_3  + x$_5_4  + x$_5_5  + x$_5_6  + x$_5_7  + x$_5_8 = 1
z17:  - x_1 + -4 x$_6_0  + -3 x$_6_1  + -2 x$_6_2  + -1 x$_6_3  + 0 x$_6_4  + 1 x$_6_5  + 2 x$_6_6  + 3 x$_6_7  + 4 x$_6_8 = 1
z18: x$_6_0  + x$_6_1  + x$_6_2  + x$_6_3  + x$_6_4  + x$_6_5  + x$_6_6  + x$_6_7  + x$_6_8 = 1
z19:  - x_2 + -4 x$_7_0  + -3 x$_7_1  + -2 x$_7_2  + -1 x$_7_3  + 0 x$_7_4  + 1 x$_7_5  + 2 x$_7_6  + 3 x$_7_7  + 4 x$_7_8 = 2
z20: x$_7_0  + x$_7_1  + x$_7_2  + x$_7_3  + x$_7_4  + x$_7_5  + x$_7_6  + x$_7_7  + x$_7_8 = 1
z21:  - x_3 + -4 x$_8_0  + -3 x$_8_1  + -2 x$_8_2  + -1 x$_8_3  + 0 x$_8_4  + 1 x$_8_5  + 2 x$_8_6  + 3 x$_8_7  + 4 x$_8_8 = 3
z22: x$_8_0  + x$_8_1  + x$_8_2  + x$_8_3  + x$_8_4  + x$_8_5  + x$_8_6  + x$_8_7  + x$_8_8 = 1
z23:  - x_4 + -4 x$_9_0  + -3 x$_9_1  + -2 x$_9_2  + -1 x$_9_3  + 0 x$_9_4  + 1 x$_9_5  + 2 x$_9_6  + 3 x$_9_7  + 4 x$_9_8 = 4
z24: x$_9_0  + x$_9_1  + x$_9_2  + x$_9_3  + x$_9_4  + x$_9_5  + x$_9_6  + x$_9_7  + x$_9_8 = 1
z25: x$_5_0  + x$_6_0  + x$_7_0  + x$_8_0  + x$_9_0  + x$_10_0  + x$_11_0  + x$_12_0  + x$_13_0 = 1
z26: x$_5_1  + x$_6_1  + x$_7_1  + x$_8_1  + x$_9_1  + x$_10_1  + x$_11_1  + x$_12_1  + x$_13_1 = 1
z27: x$_5_2  + x$_6_2  + x$_7_2  + x$_8_2  + x$_9_2  + x$_10_2  + x$_11_2  + x$_12_2  + x$_13_2 = 1
z28: x$_5_3  + x$_6_3  + x$_7_3  + x$_8_3  + x$_9_3  + x$_10_3  + x$_11_3  + x$_12_3  + x$_13_3 = 1
z29: x$_5_4  + x$_6_4  + x$_7_4  + x$_8_4  + x$_9_4  + x$_10_4  + x$_11_4  + x$_12_4  + x$_13_4 = 1
z30:  - x_0 + 0 x$_10_0  + 1 x$_10_1  + 2 x$_10_2  + 3 x$_10_3  + 4 x$_10_4  + 5 x$_10_5  + 6 x$_10_6  + 7 x$_10_7  + 8 x$_10_8 = 0
z31: x$_10_0  + x$_10_1  + x$_10_2  + x$_10_3  + x$_10_4  + x$_10_5  + x$_10_6  + x$_10_7  + x$_10_8 = 1
z32:  - x_1 + 0 x$_11_0  + 1 x$_11_1  + 2 x$_11_2  + 3 x$_11_3  + 4 x$_11_4  + 5 x$_11_5  + 6 x$_11_6  + 7 x$_11_7  + 8 x$_11_8 = -1
z33: x$_11_0  + x$_11_1  + x$_11_2  + x$_11_3  + x$_11_4  + x$_11_5  + x$_11_6  + x$_11_7  + x$_11_8 = 1
z34:  - x_2 + 0 x$_12_0  + 1 x$_12_1  + 2 x$_12_2  + 3 x$_12_3  + 4 x$_12_4  + 5 x$_12_5  + 6 x$_12_6  + 7 x$_12_7  + 8 x$_12_8 = -2
z35: x$_12_0  + x$_12_1  + x$_12_2  + x$_12_3  + x$_12_4  + x$_12_5  + x$_12_6  + x$_12_7  + x$_12_8 = 1
z36:  - x_3 + 0 x$_13_0  + 1 x$_13_1  + 2 x$_13_2  + 3 x$_13_3  + 4 x$_13_4  + 5 x$_13_5  + 6 x$_13_6  + 7 x$_13_7  + 8 x$_13_8 = -3
z37: x$_13_0  + x$_13_1  + x$_13_2  + x$_13_3  + x$_13_4  + x$_13_5  + x$_13_6  + x$_13_7  + x$_13_8 = 1
z38:  - x_4 + 0 x$_14_0  + 1 x$_14_1  + 2 x$_14_2  + 3 x$_14_3  + 4 x$_14_4  + 5 x$_14_5  + 6 x$_14_6  + 7 x$_14_7  + 8 x$_14_8 = -4
z39: x$_14_0  + x$_14_1  + x$_14_2  + x$_14_3  + x$_14_4  + x$_14_5  + x$_14_6  + x$_14_7  + x$_14_8 = 1
z40: x$_10_0  + x$_11_0  + x$_12_0  + x$_13_0  + x$_14_0  + x$_15_0  + x$_16_0  + x$_17_0  + x$_18_0 = 1
z41: x$_10_1  + x$_11_1  + x$_12_1  + x$_13_1  + x$_14_1  + x$_15_1  + x$_16_1  + x$_17_1  + x$_18_1 = 1
z42: x$_10_2  + x$_11_2  + x$_12_2  + x$_13_2  + x$_14_2  + x$_15_2  + x$_16_2  + x$_17_2  + x$_18_2 = 1
z43: x$_10_3  + x$_11_3  + x$_12_3  + x$_13_3  + x$_14_3  + x$_15_3  + x$_16_3  + x$_17_3  + x$_18_3 = 1
z44: x$_10_4  + x$_11_4  + x$_12_4  + x$_13_4  + x$_14_4  + x$_15_4  + x$_16_4  + x$_17_4  + x$_18_4 = 1


Bounds

x_0 <= 4
x_1 <= 4
x_2 <= 4
x_3 <= 4
x_4 <= 4



Binary

x$_0_0 x$_0_1 x$_0_2 x$_0_3 x$_0_4 x$_1_0 x$_1_1 x$_1_2 x$_1_3 x$_1_4 x$_2_0 x$_2_1 x$_2_2 x$_2_3 x$_2_4 x$_3_0 x$_3_1 x$_3_2 x$_3_3 x$_3_4 x$_4_0 x$_4_1 x$_4_2 x$_4_3 x$_4_4 x$_5_0 x$_5_1 x$_5_2 x$_5_3 x$_5_4 x$_5_5 x$_5_6 x$_5_7 x$_5_8 x$_6_0 x$_6_1 x$_6_2 x$_6_3 x$_6_4 x$_6_5 x$_6_6 x$_6_7 x$_6_8 x$_7_0 x$_7_1 x$_7_2 x$_7_3 x$_7_4 x$_7_5 x$_7_6 x$_7_7 x$_7_8 x$_8_0 x$_8_1 x$_8_2 x$_8_3 x$_8_4 x$_8_5 x$_8_6 x$_8_7 x$_8_8 x$_9_0 x$_9_1 x$_9_2 x$_9_3 x$_9_4 x$_9_5 x$_9_6 x$_9_7 x$_9_8 x$_10_0 x$_10_1 x$_10_2 x$_10_3 x$_10_4 x$_10_5 x$_10_6 x$_10_7 x$_10_8 x$_11_0 x$_11_1 x$_11_2 x$_11_3 x$_11_4 x$_11_5 x$_11_6 x$_11_7 x$_11_8 x$_12_0 x$_12_1 x$_12_2 x$_12_3 x$_12_4 x$_12_5 x$_12_6 x$_12_7 x$_12_8 x$_13_0 x$_13_1 x$_13_2 x$_13_3 x$_13_4 x$_13_5 x$_13_6 x$_13_7 x$_13_8 x$_14_0 x$_14_1 x$_14_2 x$_14_3 x$_14_4 x$_14_5 x$_14_6 x$_14_7 x$_14_8


General

 x_0 x_1 x_2 x_3 x_4



General Constraints




End
